DATASET = "thpack7";
INSTANCE = "019";

WIDTH = 233;
HEIGHT = 220;
LENGTH = 587;

NO_OF_SHAPES = 20;
size = [|
  60,45,26 |
  71,43,39 |
  99,71,64 |
  61,41,40 |
  83,79,43 |
  63,52,35 |
  54,33,20 |
  62,57,51 |
  79,76,71 |
  91,81,48 |
  95,70,23 |
  101,57,42 |
  119,76,61 |
  78,54,22 |
  93,68,25 |
  104,94,27 |
  66,65,36 |
  68,66,48 |
  100,46,21 |
  106,81,30 |
|];

verticality = [|
  0,1,1 |
  1,1,1 |
  1,1,1 |
  1,1,1 |
  1,1,1 |
  1,1,1 |
  0,1,1 |
  1,1,1 |
  1,1,1 |
  1,1,1 |
  0,0,1 |
  0,1,1 |
  1,1,1 |
  0,0,1 |
  0,0,1 |
  0,0,1 |
  1,1,1 |
  1,1,1 |
  0,0,1 |
  0,0,1 |
|];

box_count = [
  9,
  6,
  7,
  3,
  3,
  4,
  5,
  9,
  6,
  5,
  4,
  11,
  8,
  7,
  9,
  2,
  12,
  11,
  4,
  10,
];
